c input_v4/sequential/cnf_ALO_v4/10x10_120.cnf
c p 1720
c cnf 7712
s SATISFIABLE
c process-time: 0.00 seconds
-----
c input_v4/sequential/cnf_ALO_v4/10x10_121.cnf
c p 1720
c cnf 7528
s SATISFIABLE
c process-time: 0.00 seconds
-----
c input_v4/sequential/cnf_ALO_v4/10x10_122.cnf
c p 1720
c cnf 7583
s SATISFIABLE
c process-time: 0.00 seconds
-----
c input_v4/sequential/cnf_ALO_v4/10x10_123.cnf
c p 1880
c cnf 8296
s SATISFIABLE
c process-time: 0.00 seconds
-----
c input_v4/sequential/cnf_ALO_v4/10x10_124.cnf
c p 1720
c cnf 7546
s SATISFIABLE
c process-time: 0.00 seconds
-----
c input_v4/sequential/cnf_ALO_v4/10x10_130.cnf
c p 1720
c cnf 7417
s SATISFIABLE
c process-time: 0.00 seconds
-----
c input_v4/sequential/cnf_ALO_v4/10x10_131.cnf
c p 1388
c cnf 6323
s SATISFIABLE
c process-time: 0.00 seconds
-----
c input_v4/sequential/cnf_ALO_v4/10x10_132.cnf
c p 1556
c cnf 7039
s SATISFIABLE
c process-time: 0.00 seconds
-----
c input_v4/sequential/cnf_ALO_v4/10x10_133.cnf
c p 1880
c cnf 8419
s SATISFIABLE
c process-time: 0.00 seconds
-----
c input_v4/sequential/cnf_ALO_v4/10x10_134.cnf
c p 1388
c cnf 6352
s SATISFIABLE
c process-time: 0.00 seconds
-----
c input_v4/sequential/cnf_ALO_v4/10x10_135.cnf
c p 1556
c cnf 7006
s SATISFIABLE
c process-time: 0.00 seconds
-----
c input_v4/sequential/cnf_ALO_v4/10x10_136.cnf
c p 1720
c cnf 7620
s SATISFIABLE
c process-time: 0.00 seconds
-----
c input_v4/sequential/cnf_ALO_v4/10x10_137.cnf
c p 1720
c cnf 7620
s SATISFIABLE
c process-time: 0.00 seconds
-----
c input_v4/sequential/cnf_ALO_v4/10x10_138.cnf
c p 1880
c cnf 8337
s SATISFIABLE
c process-time: 0.00 seconds
-----
c input_v4/sequential/cnf_ALO_v4/10x10_139.cnf
c p 1556
c cnf 6924
s SATISFIABLE
c process-time: 0.00 seconds
-----
c input_v4/sequential/cnf_ALO_v4/10x10_140.cnf
c p 1880
c cnf 8214
s SATISFIABLE
c process-time: 0.00 seconds
-----
c input_v4/sequential/cnf_ALO_v4/10x10_141.cnf
c p 1720
c cnf 7693
s SATISFIABLE
c process-time: 0.00 seconds
-----
c input_v4/sequential/cnf_ALO_v4/10x10_142.cnf
c p 1720
c cnf 7638
s SATISFIABLE
c process-time: 0.00 seconds
-----
c input_v4/sequential/cnf_ALO_v4/10x10_143.cnf
c p 1556
c cnf 6907
s SATISFIABLE
c process-time: 0.00 seconds
-----
c input_v4/sequential/cnf_ALO_v4/10x10_144.cnf
c p 1880
c cnf 8051
s SATISFIABLE
c process-time: 0.00 seconds
-----
c input_v4/sequential/cnf_ALO_v4/10x10_145.cnf
c p 1880
c cnf 8173
s SATISFIABLE
c process-time: 0.00 seconds
-----
c input_v4/sequential/cnf_ALO_v4/10x15_387.cnf
c p 2670
c cnf 12367
s SATISFIABLE
c process-time: 0.01 seconds
-----
c input_v4/sequential/cnf_ALO_v4/10x15_388.cnf
c p 2406
c cnf 11529
s SATISFIABLE
c process-time: 0.01 seconds
-----
c input_v4/sequential/cnf_ALO_v4/10x15_389.cnf
c p 2138
c cnf 10195
s SATISFIABLE
c process-time: 0.01 seconds
-----
c input_v4/sequential/cnf_ALO_v4/10x15_390.cnf
c p 2670
c cnf 12552
s SATISFIABLE
c process-time: 0.02 seconds
-----
c input_v4/sequential/cnf_ALO_v4/10x15_396.cnf
c p 2138
c cnf 10210
s SATISFIABLE
c process-time: 0.01 seconds
-----
c input_v4/sequential/cnf_ALO_v4/10x15_397.cnf
c p 2406
c cnf 11347
s SATISFIABLE
c process-time: 0.02 seconds
-----
c input_v4/sequential/cnf_ALO_v4/10x15_398.cnf
c p 2138
c cnf 10181
s SATISFIABLE
c process-time: 0.01 seconds
-----
c input_v4/sequential/cnf_ALO_v4/10x15_399.cnf
c p 2406
c cnf 11363
s SATISFIABLE
c process-time: 0.01 seconds
-----
c input_v4/sequential/cnf_ALO_v4/10x15_400.cnf
c p 2138
c cnf 10210
s SATISFIABLE
c process-time: 0.01 seconds
-----
c input_v4/sequential/cnf_ALO_v4/10x18_186.cnf
c p 4188
c cnf 19370
s SATISFIABLE
c process-time: 0.03 seconds
-----
c input_v4/sequential/cnf_ALO_v4/10x18_187.cnf
c p 3240
c cnf 15540
s SATISFIABLE
c process-time: 0.06 seconds
-----
c input_v4/sequential/cnf_ALO_v4/10x18_198.cnf
c p 5100
c cnf 23249
s SATISFIABLE
c process-time: 0.01 seconds
-----
c input_v4/sequential/cnf_ALO_v4/10x18_199.cnf
c p 4188
c cnf 19516
s SATISFIABLE
c process-time: 0.01 seconds
-----
c input_v4/sequential/cnf_ALO_v4/10x18_200.cnf
c p 3876
c cnf 18122
s SATISFIABLE
c process-time: 0.06 seconds
-----
c input_v4/sequential/cnf_ALO_v4/10x18_208.cnf
c p 4496
c cnf 21098
s SATISFIABLE
c process-time: 0.01 seconds
-----
c input_v4/sequential/cnf_ALO_v4/10x18_209.cnf
c p 3876
c cnf 18436
s SATISFIABLE
c process-time: 0.01 seconds
-----
c input_v4/sequential/cnf_ALO_v4/10x18_414.cnf
c p 5396
c cnf 24138
s SATISFIABLE
c process-time: 0.03 seconds
-----
c input_v4/sequential/cnf_ALO_v4/10x18_415.cnf
c p 5100
c cnf 23006
s SATISFIABLE
c process-time: 0.01 seconds
-----
c input_v4/sequential/cnf_ALO_v4/10x18_416.cnf
c p 3240
c cnf 15355
s SATISFIABLE
c process-time: 0.01 seconds
-----
c input_v4/sequential/cnf_ALO_v4/10x18_417.cnf
c p 3876
c cnf 18078
s SATISFIABLE
c process-time: 0.06 seconds
-----
c input_v4/sequential/cnf_ALO_v4/11x11_120.cnf
c p 2519
c cnf 11177
s SATISFIABLE
c process-time: 0.00 seconds
-----
c input_v4/sequential/cnf_ALO_v4/11x11_121.cnf
c p 1913
c cnf 8779
s SATISFIABLE
c process-time: 0.00 seconds
-----
c input_v4/sequential/cnf_ALO_v4/11x11_122.cnf
c p 1703
c cnf 7994
s SATISFIABLE
c process-time: 0.00 seconds
-----
c input_v4/sequential/cnf_ALO_v4/11x11_123.cnf
c p 2519
c cnf 11178
s SATISFIABLE
c process-time: 0.01 seconds
-----
c input_v4/sequential/cnf_ALO_v4/11x11_124.cnf
c p 2519
c cnf 11133
s SATISFIABLE
c process-time: 0.00 seconds
-----
c input_v4/sequential/cnf_ALO_v4/11x11_130.cnf
c p 2119
c cnf 9633
s SATISFIABLE
c process-time: 0.00 seconds
-----
c input_v4/sequential/cnf_ALO_v4/11x11_131.cnf
c p 2519
c cnf 11088
s SATISFIABLE
c process-time: 0.00 seconds
-----
c input_v4/sequential/cnf_ALO_v4/11x11_132.cnf
c p 2321
c cnf 10496
s SATISFIABLE
c process-time: 0.01 seconds
-----
c input_v4/sequential/cnf_ALO_v4/11x11_133.cnf
c p 2119
c cnf 9652
s SATISFIABLE
c process-time: 0.00 seconds
-----
c input_v4/sequential/cnf_ALO_v4/11x11_134.cnf
c p 2519
c cnf 11178
s SATISFIABLE
c process-time: 0.00 seconds
-----
c input_v4/sequential/cnf_ALO_v4/11x11_135.cnf
c p 2519
c cnf 11043
s SATISFIABLE
c process-time: 0.00 seconds
-----
c input_v4/sequential/cnf_ALO_v4/11x11_136.cnf
c p 1703
c cnf 7922
s SATISFIABLE
c process-time: 0.01 seconds
-----
c input_v4/sequential/cnf_ALO_v4/11x11_137.cnf
c p 2519
c cnf 11379
s SATISFIABLE
c process-time: 0.00 seconds
-----
c input_v4/sequential/cnf_ALO_v4/11x11_138.cnf
c p 2519
c cnf 11178
s SATISFIABLE
c process-time: 0.00 seconds
-----
c input_v4/sequential/cnf_ALO_v4/11x11_139.cnf
c p 1913
c cnf 8779
s SATISFIABLE
c process-time: 0.00 seconds
-----
c input_v4/sequential/cnf_ALO_v4/11x11_140.cnf
c p 2519
c cnf 11357
s SATISFIABLE
c process-time: 0.00 seconds
-----
c input_v4/sequential/cnf_ALO_v4/11x11_141.cnf
c p 1913
c cnf 8795
s SATISFIABLE
c process-time: 0.00 seconds
-----
c input_v4/sequential/cnf_ALO_v4/11x11_142.cnf
c p 2119
c cnf 9578
s SATISFIABLE
c process-time: 0.01 seconds
-----
c input_v4/sequential/cnf_ALO_v4/11x11_143.cnf
c p 1913
c cnf 8894
s SATISFIABLE
c process-time: 0.00 seconds
-----
c input_v4/sequential/cnf_ALO_v4/11x11_144.cnf
c p 2119
c cnf 9578
s SATISFIABLE
c process-time: 0.00 seconds
-----
c input_v4/sequential/cnf_ALO_v4/11x11_145.cnf
c p 2119
c cnf 9670
s SATISFIABLE
c process-time: 0.00 seconds
-----
c input_v4/sequential/cnf_ALO_v4/12x12_120.cnf
c p 3524
c cnf 15872
s SATISFIABLE
c process-time: 0.01 seconds
-----
c input_v4/sequential/cnf_ALO_v4/12x12_121.cnf
c p 2556
c cnf 11879
s SATISFIABLE
c process-time: 0.01 seconds
-----
c input_v4/sequential/cnf_ALO_v4/12x12_122.cnf
c p 3288
c cnf 15015
s SATISFIABLE
c process-time: 0.01 seconds
-----
c input_v4/sequential/cnf_ALO_v4/12x12_123.cnf
c p 2804
c cnf 12972
s SATISFIABLE
c process-time: 0.00 seconds
-----
c input_v4/sequential/cnf_ALO_v4/12x12_124.cnf
c p 3288
c cnf 14942
s SATISFIABLE
c process-time: 0.01 seconds
-----
c input_v4/sequential/cnf_ALO_v4/12x12_130.cnf
c p 3288
c cnf 14941
s SATISFIABLE
c process-time: 0.01 seconds
-----
c input_v4/sequential/cnf_ALO_v4/12x12_131.cnf
c p 2556
c cnf 11971
s SATISFIABLE
c process-time: 0.01 seconds
-----
c input_v4/sequential/cnf_ALO_v4/12x12_132.cnf
c p 3288
c cnf 14770
s SATISFIABLE
c process-time: 0.01 seconds
-----
c input_v4/sequential/cnf_ALO_v4/12x12_133.cnf
c p 3288
c cnf 14648
s SATISFIABLE
c process-time: 0.01 seconds
-----
c input_v4/sequential/cnf_ALO_v4/12x12_134.cnf
c p 3048
c cnf 14177
s SATISFIABLE
c process-time: 0.01 seconds
-----
c input_v4/sequential/cnf_ALO_v4/12x12_135.cnf
c p 2804
c cnf 12911
s SATISFIABLE
c process-time: 0.01 seconds
-----
c input_v4/sequential/cnf_ALO_v4/12x12_136.cnf
c p 3048
c cnf 13952
s SATISFIABLE
c process-time: 0.01 seconds
-----
c input_v4/sequential/cnf_ALO_v4/12x12_137.cnf
c p 2804
c cnf 12993
s SATISFIABLE
c process-time: 0.00 seconds
-----
c input_v4/sequential/cnf_ALO_v4/12x12_138.cnf
c p 2804
c cnf 12993
s SATISFIABLE
c process-time: 0.01 seconds
-----
c input_v4/sequential/cnf_ALO_v4/12x12_139.cnf
c p 3048
c cnf 13930
s SATISFIABLE
c process-time: 0.01 seconds
-----
c input_v4/sequential/cnf_ALO_v4/12x12_140.cnf
c p 2804
c cnf 12850
s SATISFIABLE
c process-time: 0.00 seconds
-----
c input_v4/sequential/cnf_ALO_v4/12x12_141.cnf
c p 2804
c cnf 13054
s SATISFIABLE
c process-time: 0.00 seconds
-----
c input_v4/sequential/cnf_ALO_v4/12x12_142.cnf
c p 2304
c cnf 10876
s SATISFIABLE
c process-time: 0.01 seconds
-----
c input_v4/sequential/cnf_ALO_v4/12x12_143.cnf
c p 3524
c cnf 15739
s SATISFIABLE
c process-time: 0.01 seconds
-----
c input_v4/sequential/cnf_ALO_v4/12x12_144.cnf
c p 2556
c cnf 11971
s SATISFIABLE
c process-time: 0.01 seconds
-----
c input_v4/sequential/cnf_ALO_v4/12x12_145.cnf
c p 2804
c cnf 12932
s SATISFIABLE
c process-time: 0.00 seconds
-----
c input_v4/sequential/cnf_ALO_v4/12x15_39.cnf
c p 4800
c cnf 22039
s SATISFIABLE
c process-time: 0.01 seconds
-----
c input_v4/sequential/cnf_ALO_v4/12x15_43.cnf
c p 4188
c cnf 19547
s SATISFIABLE
c process-time: 0.03 seconds
-----
c input_v4/sequential/cnf_ALO_v4/12x15_45.cnf
c p 3240
c cnf 15435
s SATISFIABLE
c process-time: 0.01 seconds
-----
c input_v4/sequential/cnf_ALO_v4/12x15_46.cnf
c p 3560
c cnf 16854
s SATISFIABLE
c process-time: 0.01 seconds
-----
c input_v4/sequential/cnf_ALO_v4/12x23_210.cnf
c p 11868
c cnf 54793
s SATISFIABLE
c process-time: 0.03 seconds
-----
c input_v4/sequential/cnf_ALO_v4/13x13_120.cnf
c p 3913
c cnf 18307
s SATISFIABLE
c process-time: 0.01 seconds
-----
c input_v4/sequential/cnf_ALO_v4/13x13_121.cnf
c p 3623
c cnf 16873
s SATISFIABLE
c process-time: 0.01 seconds
-----
c input_v4/sequential/cnf_ALO_v4/13x13_122.cnf
c p 3031
c cnf 14431
s SATISFIABLE
c process-time: 0.01 seconds
-----
c input_v4/sequential/cnf_ALO_v4/13x13_123.cnf
c p 4199
c cnf 19317
s SATISFIABLE
c process-time: 0.01 seconds
-----
c input_v4/sequential/cnf_ALO_v4/13x13_124.cnf
c p 3913
c cnf 18160
s SATISFIABLE
c process-time: 0.01 seconds
-----
c input_v4/sequential/cnf_ALO_v4/13x13_130.cnf
c p 3913
c cnf 18233
s SATISFIABLE
c process-time: 0.01 seconds
-----
c input_v4/sequential/cnf_ALO_v4/13x13_131.cnf
c p 3623
c cnf 17053
s SATISFIABLE
c process-time: 0.01 seconds
-----
c input_v4/sequential/cnf_ALO_v4/13x13_132.cnf
c p 4199
c cnf 19291
s SATISFIABLE
c process-time: 0.01 seconds
-----
c input_v4/sequential/cnf_ALO_v4/13x13_133.cnf
c p 3623
c cnf 16963
s SATISFIABLE
c process-time: 0.01 seconds
-----
c input_v4/sequential/cnf_ALO_v4/13x13_134.cnf
c p 3329
c cnf 15665
s SATISFIABLE
c process-time: 0.01 seconds
-----
c input_v4/sequential/cnf_ALO_v4/13x13_135.cnf
c p 3623
c cnf 16851
s SATISFIABLE
c process-time: 0.01 seconds
-----
c input_v4/sequential/cnf_ALO_v4/13x13_136.cnf
c p 3913
c cnf 18087
s SATISFIABLE
c process-time: 0.02 seconds
-----
c input_v4/sequential/cnf_ALO_v4/13x13_137.cnf
c p 3913
c cnf 18087
s SATISFIABLE
c process-time: 0.01 seconds
-----
c input_v4/sequential/cnf_ALO_v4/13x13_138.cnf
c p 4199
c cnf 19238
s SATISFIABLE
c process-time: 0.01 seconds
-----
c input_v4/sequential/cnf_ALO_v4/13x13_139.cnf
c p 4481
c cnf 20434
s SATISFIABLE
c process-time: 0.01 seconds
-----
c input_v4/sequential/cnf_ALO_v4/13x13_140.cnf
c p 3623
c cnf 17300
s SATISFIABLE
c process-time: 0.01 seconds
-----
c input_v4/sequential/cnf_ALO_v4/13x13_141.cnf
c p 3329
c cnf 15870
s SATISFIABLE
c process-time: 0.01 seconds
-----
c input_v4/sequential/cnf_ALO_v4/13x13_142.cnf
c p 3329
c cnf 15583
s SATISFIABLE
c process-time: 0.05 seconds
-----
c input_v4/sequential/cnf_ALO_v4/13x13_143.cnf
c p 3329
c cnf 15665
s SATISFIABLE
c process-time: 0.03 seconds
-----
c input_v4/sequential/cnf_ALO_v4/13x13_144.cnf
c p 4481
c cnf 20605
s SATISFIABLE
c process-time: 0.01 seconds
-----
c input_v4/sequential/cnf_ALO_v4/13x13_145.cnf
c p 4199
c cnf 19344
s SATISFIABLE
c process-time: 0.01 seconds
-----
c input_v4/sequential/cnf_ALO_v4/14x14_120.cnf
c p 4928
c cnf 23144
s SATISFIABLE
c process-time: 0.05 seconds
-----
c input_v4/sequential/cnf_ALO_v4/14x14_121.cnf
c p 5264
c cnf 24739
s SATISFIABLE
c process-time: 0.03 seconds
-----
c input_v4/sequential/cnf_ALO_v4/14x14_122.cnf
c p 5264
c cnf 24710
s SATISFIABLE
c process-time: 0.01 seconds
-----
c input_v4/sequential/cnf_ALO_v4/14x14_123.cnf
c p 4588
c cnf 21659
s SATISFIABLE
c process-time: 0.01 seconds
-----
c input_v4/sequential/cnf_ALO_v4/14x14_124.cnf
c p 4928
c cnf 23117
s SATISFIABLE
c process-time: 0.02 seconds
-----
c input_v4/sequential/cnf_ALO_v4/14x14_130.cnf
c p 4588
c cnf 21927
s SATISFIABLE
c process-time: 0.01 seconds
-----
c input_v4/sequential/cnf_ALO_v4/14x14_131.cnf
c p 5264
c cnf 24739
s SATISFIABLE
c process-time: 0.01 seconds
-----
c input_v4/sequential/cnf_ALO_v4/14x14_132.cnf
c p 5596
c cnf 26170
s SATISFIABLE
c process-time: 0.01 seconds
-----
c input_v4/sequential/cnf_ALO_v4/14x14_133.cnf
c p 5596
c cnf 25865
s SATISFIABLE
c process-time: 0.03 seconds
-----
c input_v4/sequential/cnf_ALO_v4/14x14_134.cnf
c p 5264
c cnf 24653
s SATISFIABLE
c process-time: 0.01 seconds
-----
c input_v4/sequential/cnf_ALO_v4/14x14_135.cnf
c p 4244
c cnf 20411
s SATISFIABLE
c process-time: 0.01 seconds
-----
c input_v4/sequential/cnf_ALO_v4/14x14_136.cnf
c p 4244
c cnf 20366
s SATISFIABLE
c process-time: 0.02 seconds
-----
c input_v4/sequential/cnf_ALO_v4/14x14_137.cnf
c p 5264
c cnf 24568
s SATISFIABLE
c process-time: 0.02 seconds
-----
c input_v4/sequential/cnf_ALO_v4/14x14_138.cnf
c p 5264
c cnf 24938
s SATISFIABLE
c process-time: 0.05 seconds
-----
c input_v4/sequential/cnf_ALO_v4/14x14_139.cnf
c p 4928
c cnf 23408
s SATISFIABLE
c process-time: 0.01 seconds
-----
c input_v4/sequential/cnf_ALO_v4/14x14_140.cnf
c p 5596
c cnf 26139
s SATISFIABLE
c process-time: 0.01 seconds
-----
c input_v4/sequential/cnf_ALO_v4/14x14_141.cnf
c p 5596
c cnf 25835
s SATISFIABLE
c process-time: 0.03 seconds
-----
c input_v4/sequential/cnf_ALO_v4/14x14_142.cnf
c p 5264
c cnf 24796
s SATISFIABLE
c process-time: 0.02 seconds
-----
c input_v4/sequential/cnf_ALO_v4/14x14_143.cnf
c p 5264
c cnf 24483
s SATISFIABLE
c process-time: 0.03 seconds
-----
c input_v4/sequential/cnf_ALO_v4/14x14_144.cnf
c p 4244
c cnf 20366
s SATISFIABLE
c process-time: 0.01 seconds
-----
c input_v4/sequential/cnf_ALO_v4/14x14_145.cnf
c p 5596
c cnf 26108
s SATISFIABLE
c process-time: 0.04 seconds
-----
c input_v4/sequential/cnf_ALO_v4/14x24_105.cnf
c p 13524
c cnf 64764
s SATISFIABLE
c process-time: 0.24 seconds
-----
c input_v4/sequential/cnf_ALO_v4/14x24_110.cnf
c p 12344
c cnf 59546
s SATISFIABLE
c process-time: 2s 2.01 seconds
-----
c input_v4/sequential/cnf_ALO_v4/14x24_113.cnf
c p 14688
c cnf 69877
s SATISFIABLE
c process-time: 0.43 seconds
-----
c input_v4/sequential/cnf_ALO_v4/14x24_117.cnf
c p 11748
c cnf 56971
s SATISFIABLE
c process-time: 0.33 seconds
-----
c input_v4/sequential/cnf_ALO_v4/14x24_129.cnf
c p 12344
c cnf 59661
s SATISFIABLE
c process-time: 2s 1.83 seconds
-----
c input_v4/sequential/cnf_ALO_v4/14x24_139.cnf
c p 12344
c cnf 59777
s SATISFIABLE
c process-time: 0.14 seconds
-----
c input_v4/sequential/cnf_ALO_v4/14x24_147.cnf
c p 12936
c cnf 61992
s SATISFIABLE
c process-time: 2s 1.57 seconds
-----
c input_v4/sequential/cnf_ALO_v4/14x24_148.cnf
c p 9324
c cnf 46105
s SATISFIABLE
c process-time: 0.12 seconds
-----
c input_v4/sequential/cnf_ALO_v4/14x24_157.cnf
c p 9936
c cnf 49018
s SATISFIABLE
c process-time: 1s 0.76 seconds
-----
c input_v4/sequential/cnf_ALO_v4/14x24_158.cnf
c p 8088
c cnf 40072
s SATISFIABLE
c process-time: 9s 8.94 seconds
-----
c input_v4/sequential/cnf_ALO_v4/14x24_169.cnf
c p 9324
c cnf 45963
s SATISFIABLE
c process-time: 2s 1.54 seconds
-----
c input_v4/sequential/cnf_ALO_v4/14x24_179.cnf
c p 8088
c cnf 40194
s SATISFIABLE
c process-time: 1s 0.93 seconds
-----
c input_v4/sequential/cnf_ALO_v4/14x24_188.cnf
c p 13524
c cnf 65146
s SATISFIABLE
c process-time: 0.04 seconds
-----
c input_v4/sequential/cnf_ALO_v4/14x24_189.cnf
c p 15836
c cnf 74392
s SATISFIABLE
c process-time: 0.14 seconds
-----
c input_v4/sequential/cnf_ALO_v4/14x24_190.cnf
c p 8088
c cnf 40121
s SATISFIABLE
c process-time: 25s 25.00 seconds
-----
c input_v4/sequential/cnf_ALO_v4/14x24_199.cnf
c p 7464
c cnf 37197
s SATISFIABLE
c process-time: 1s 1.46 seconds
-----
c input_v4/sequential/cnf_ALO_v4/14x24_200.cnf
c p 8708
c cnf 43058
s SATISFIABLE
c process-time: 0.44 seconds
-----
c input_v4/sequential/cnf_ALO_v4/14x24_208.cnf
c p 12344
c cnf 59623
s SATISFIABLE
c process-time: 0.14 seconds
-----
c input_v4/sequential/cnf_ALO_v4/14x24_209.cnf
c p 8708
c cnf 43111
s SATISFIABLE
c process-time: 0.40 seconds
-----
c input_v4/sequential/cnf_ALO_v4/14x24_218.cnf
c p 12344
c cnf 59892
s SATISFIABLE
c process-time: 1s 0.53 seconds
-----
c input_v4/sequential/cnf_ALO_v4/14x24_219.cnf
c p 9324
c cnf 45934
s SATISFIABLE
c process-time: 2s 1.64 seconds
-----
c input_v4/sequential/cnf_ALO_v4/14x24_418.cnf
c p 11148
c cnf 54657
s SATISFIABLE
c process-time: 0.14 seconds
-----
c input_v4/sequential/cnf_ALO_v4/14x24_419.cnf
c p 14688
c cnf 69552
s SATISFIABLE
c process-time: 0.23 seconds
-----
c input_v4/sequential/cnf_ALO_v4/14x24_420.cnf
c p 8708
c cnf 43084
s SATISFIABLE
c process-time: 3s 2.88 seconds
-----
c input_v4/sequential/cnf_ALO_v4/15x15_120.cnf
c p 6495
c cnf 30992
s SATISFIABLE
c process-time: 0.09 seconds
-----
c input_v4/sequential/cnf_ALO_v4/15x15_121.cnf
c p 5313
c cnf 25584
s SATISFIABLE
c process-time: 0.02 seconds
-----
c input_v4/sequential/cnf_ALO_v4/15x15_122.cnf
c p 6105
c cnf 29055
s SATISFIABLE
c process-time: 0.01 seconds
-----
c input_v4/sequential/cnf_ALO_v4/15x15_123.cnf
c p 6495
c cnf 30748
s SATISFIABLE
c process-time: 0.12 seconds
-----
c input_v4/sequential/cnf_ALO_v4/15x15_124.cnf
c p 6495
c cnf 30718
s SATISFIABLE
c process-time: 0.03 seconds
-----
c input_v4/sequential/cnf_ALO_v4/15x15_130.cnf
c p 6105
c cnf 29083
s SATISFIABLE
c process-time: 0.01 seconds
-----
c input_v4/sequential/cnf_ALO_v4/15x15_131.cnf
c p 6495
c cnf 30626
s SATISFIABLE
c process-time: 0.02 seconds
-----
c input_v4/sequential/cnf_ALO_v4/15x15_132.cnf
c p 6495
c cnf 30748
s SATISFIABLE
c process-time: 0.03 seconds
-----
c input_v4/sequential/cnf_ALO_v4/15x15_133.cnf
c p 6495
c cnf 30596
s SATISFIABLE
c process-time: 0.01 seconds
-----
c input_v4/sequential/cnf_ALO_v4/15x15_134.cnf
c p 5711
c cnf 27352
s SATISFIABLE
c process-time: 0.14 seconds
-----
c input_v4/sequential/cnf_ALO_v4/15x15_135.cnf
c p 6495
c cnf 30748
s SATISFIABLE
c process-time: 0.01 seconds
-----
c input_v4/sequential/cnf_ALO_v4/15x15_136.cnf
c p 6495
c cnf 30900
s SATISFIABLE
c process-time: 0.02 seconds
-----
c input_v4/sequential/cnf_ALO_v4/15x15_137.cnf
c p 6495
c cnf 30961
s SATISFIABLE
c process-time: 0.09 seconds
-----
c input_v4/sequential/cnf_ALO_v4/15x15_138.cnf
c p 6495
c cnf 30748
s SATISFIABLE
c process-time: 0.01 seconds
-----
c input_v4/sequential/cnf_ALO_v4/15x15_139.cnf
c p 6105
c cnf 28998
s SATISFIABLE
c process-time: 0.31 seconds
-----
c input_v4/sequential/cnf_ALO_v4/15x15_140.cnf
c p 6495
c cnf 30809
s SATISFIABLE
c process-time: 0.01 seconds
-----
c input_v4/sequential/cnf_ALO_v4/15x15_141.cnf
c p 6495
c cnf 30809
s SATISFIABLE
c process-time: 0.04 seconds
-----
c input_v4/sequential/cnf_ALO_v4/15x15_142.cnf
c p 6495
c cnf 30657
s SATISFIABLE
c process-time: 0.01 seconds
-----
c input_v4/sequential/cnf_ALO_v4/15x15_143.cnf
c p 6495
c cnf 31083
s SATISFIABLE
c process-time: 0.05 seconds
-----
c input_v4/sequential/cnf_ALO_v4/15x15_144.cnf
c p 6495
c cnf 30901
s SATISFIABLE
c process-time: 0.02 seconds
-----
c input_v4/sequential/cnf_ALO_v4/15x15_145.cnf
c p 6105
c cnf 29225
s SATISFIABLE
c process-time: 0.01 seconds
-----
c input_v4/sequential/cnf_ALO_v4/15x20_307.cnf
c p 6080
c cnf 30310
s SATISFIABLE
c process-time: 3s 3.30 seconds
-----
c input_v4/sequential/cnf_ALO_v4/15x20_308.cnf
c p 6636
c cnf 32931
s SATISFIABLE
c process-time: 0.41 seconds
-----
c input_v4/sequential/cnf_ALO_v4/15x20_309.cnf
c p 6080
c cnf 30474
s SATISFIABLE
c process-time: 2s 2.00 seconds
-----
c input_v4/sequential/cnf_ALO_v4/15x20_310.cnf
c p 8280
c cnf 40491
s SATISFIABLE
c process-time: 0.29 seconds
-----
c input_v4/sequential/cnf_ALO_v4/15x20_317.cnf
c p 8280
c cnf 40320
s SATISFIABLE
c process-time: 0.05 seconds
-----
c input_v4/sequential/cnf_ALO_v4/15x20_318.cnf
c p 8280
c cnf 40377
s SATISFIABLE
c process-time: 0.33 seconds
-----
c input_v4/sequential/cnf_ALO_v4/15x20_319.cnf
c p 7736
c cnf 37852
s SATISFIABLE
c process-time: 3s 3.48 seconds
-----
c input_v4/sequential/cnf_ALO_v4/15x20_320.cnf
c p 7736
c cnf 37931
s SATISFIABLE
c process-time: 0.09 seconds
-----
c input_v4/sequential/cnf_ALO_v4/17x17_100.cnf
c p 6383
c cnf 31608
s SATISFIABLE
c process-time: 0.13 seconds
-----
c input_v4/sequential/cnf_ALO_v4/17x17_104.cnf
c p 10511
c cnf 50372
s SATISFIABLE
c process-time: 0.24 seconds
-----
c input_v4/sequential/cnf_ALO_v4/17x17_109.cnf
c p 10009
c cnf 47933
s SATISFIABLE
c process-time: 0.26 seconds
-----
c input_v4/sequential/cnf_ALO_v4/17x17_112.cnf
c p 11009
c cnf 52191
s SATISFIABLE
c process-time: 0.21 seconds
-----
c input_v4/sequential/cnf_ALO_v4/17x17_116.cnf
c p 9503
c cnf 45655
s SATISFIABLE
c process-time: 2s 1.77 seconds
-----
c input_v4/sequential/cnf_ALO_v4/17x17_120.cnf
c p 6913
c cnf 33957
s SATISFIABLE
c process-time: 1s 0.88 seconds
-----
c input_v4/sequential/cnf_ALO_v4/17x17_128.cnf
c p 6913
c cnf 34251
s SATISFIABLE
c process-time: 0.26 seconds
-----
c input_v4/sequential/cnf_ALO_v4/17x17_136.cnf
c p 10009
c cnf 48224
s SATISFIABLE
c process-time: 0.14 seconds
-----
c input_v4/sequential/cnf_ALO_v4/17x17_138.cnf
c p 6383
c cnf 31518
s SATISFIABLE
c process-time: 2s 1.71 seconds
-----
c input_v4/sequential/cnf_ALO_v4/17x17_165.cnf
c p 6913
c cnf 33957
s SATISFIABLE
c process-time: 1s 0.64 seconds
-----
c input_v4/sequential/cnf_ALO_v4/17x17_166.cnf
c p 6383
c cnf 31518
s SATISFIABLE
c process-time: 1s 0.66 seconds
-----
c input_v4/sequential/cnf_ALO_v4/17x17_167.cnf
c p 13913
c cnf 65109
s SATISFIABLE
c process-time: 0.02 seconds
-----
c input_v4/sequential/cnf_ALO_v4/17x17_168.cnf
c p 14849
c cnf 68388
s SATISFIABLE
c process-time: 0.03 seconds
-----
c input_v4/sequential/cnf_ALO_v4/17x17_175.cnf
c p 5311
c cnf 26649
s SATISFIABLE
c process-time: 4s 4.40 seconds
-----
c input_v4/sequential/cnf_ALO_v4/17x17_176.cnf
c p 4769
c cnf 24060
s SATISFIABLE
c process-time: 2s 1.71 seconds
-----
c input_v4/sequential/cnf_ALO_v4/17x17_177.cnf
c p 11503
c cnf 54745
s SATISFIABLE
c process-time: 1s 0.74 seconds
-----
c input_v4/sequential/cnf_ALO_v4/17x17_178.cnf
c p 12961
c cnf 61316
s SATISFIABLE
c process-time: 2s 1.81 seconds
-----
c input_v4/sequential/cnf_ALO_v4/17x17_187.cnf
c p 5849
c cnf 29141
s SATISFIABLE
c process-time: 1s 1.39 seconds
-----
c input_v4/sequential/cnf_ALO_v4/17x17_188.cnf
c p 6383
c cnf 31563
s SATISFIABLE
c process-time: 0.11 seconds
-----
c input_v4/sequential/cnf_ALO_v4/17x17_197.cnf
c p 6383
c cnf 31608
s SATISFIABLE
c process-time: 2s 1.72 seconds
-----
c input_v4/sequential/cnf_ALO_v4/17x17_198.cnf
c p 5311
c cnf 26483
s SATISFIABLE
c process-time: 5s 5.38 seconds
-----
c input_v4/sequential/cnf_ALO_v4/17x17_230.cnf
c p 3673
c cnf 18760
s SATISFIABLE
c process-time: 1s 0.88 seconds
-----
c input_v4/sequential/cnf_ALO_v4/17x17_240.cnf
c p 5311
c cnf 26575
s SATISFIABLE
c process-time: 2s 1.58 seconds
-----
c input_v4/sequential/cnf_ALO_v4/17x17_250.cnf
c p 16673
c cnf 74917
s SATISFIABLE
c process-time: 0.24 seconds
-----
c input_v4/sequential/cnf_ALO_v4/17x17_260.cnf
c p 16673
c cnf 75949
s SATISFIABLE
c process-time: 0.07 seconds
-----
c input_v4/sequential/cnf_ALO_v4/17x17_270.cnf
c p 14849
c cnf 68614
s SATISFIABLE
c process-time: 0.22 seconds
-----
c input_v4/sequential/cnf_ALO_v4/17x17_429.cnf
c p 10009
c cnf 48042
s SATISFIABLE
c process-time: 0.02 seconds
-----
c input_v4/sequential/cnf_ALO_v4/17x17_439.cnf
c p 6383
c cnf 31653
s SATISFIABLE
c process-time: 1s 1.15 seconds
-----
c input_v4/sequential/cnf_ALO_v4/17x17_449.cnf
c p 8993
c cnf 43636
s SATISFIABLE
c process-time: 0.26 seconds
-----
c input_v4/sequential/cnf_ALO_v4/20x20_430.cnf
c p 19100
c cnf 92894
s SATISFIABLE
c process-time: 0.50 seconds
-----
c input_v4/sequential/cnf_ALO_v4/20x20_440.cnf
c p 9688
c cnf 48824
s SATISFIABLE
c process-time: 48s 47.61 seconds
-----
c input_v4/sequential/cnf_ALO_v4/20x20_450.cnf
c p 11920
c cnf 59408
s SATISFIABLE
c process-time: 8s 8.36 seconds
-----
c input_v4/sequential/cnf_ALO_v4/20x36_106.cnf
c p 49896
c cnf 248902
s SATISFIABLE
c process-time: 19s 18.74 seconds
-----
c input_v4/sequential/cnf_ALO_v4/20x36_114.cnf
c p 49896
c cnf 249265
s SATISFIABLE
c process-time: 8s 8.22 seconds
-----
c input_v4/sequential/cnf_ALO_v4/20x36_118.cnf
c p 42060
c cnf 211785
s SATISFIABLE
c process-time: 4m 53s 292.52 seconds
-----
c input_v4/sequential/cnf_ALO_v4/20x36_130.cnf
c p 42060
c cnf 211846
s SATISFIABLE
c process-time: 11s 10.62 seconds
-----
c input_v4/sequential/cnf_ALO_v4/20x36_140.cnf
c p 42060
c cnf 211906
s SATISFIABLE
c process-time: 26s 26.12 seconds
-----
c input_v4/sequential/cnf_ALO_v4/20x36_149.cnf
c p 38088
c cnf 192269
s SATISFIABLE
c process-time: 7m 44s 464.37 seconds
-----
c input_v4/sequential/cnf_ALO_v4/20x36_150.cnf
c p 30036
c cnf 153245
c process-time: 15m 899.96 seconds
UNKNOWN
-----
c input_v4/sequential/cnf_ALO_v4/20x36_159.cnf
c p 42060
c cnf 212027
s SATISFIABLE
c process-time: 4m 40s 280.09 seconds
-----
c input_v4/sequential/cnf_ALO_v4/20x36_160.cnf
c p 30036
c cnf 153245
c process-time: 15m 899.95 seconds
UNKNOWN
-----
c input_v4/sequential/cnf_ALO_v4/20x36_170.cnf
c p 44688
c cnf 224527
s SATISFIABLE
c process-time: 2m 51s 170.64 seconds
-----
c input_v4/sequential/cnf_ALO_v4/20x36_180.cnf
c p 30036
c cnf 153330
c process-time: 15m 899.60 seconds
UNKNOWN
-----
c input_v4/sequential/cnf_ALO_v4/20x36_210.cnf
c p 44688
c cnf 224527
s SATISFIABLE
c process-time: 2m 51s 171.12 seconds
-----
c input_v4/sequential/cnf_ALO_v4/20x36_220.cnf
c p 49896
c cnf 248250
s SATISFIABLE
c process-time: 28s 27.62 seconds
-----
c input_v4/sequential/cnf_ALO_v4/25x25_60.cnf
c p 29425
c cnf 148297
s SATISFIABLE
c process-time: 1m 21s 81.11 seconds
-----
c input_v4/sequential/cnf_ALO_v4/25x25_66.cnf
c p 35135
c cnf 175566
s SATISFIABLE
c process-time: 19s 18.92 seconds
-----
c input_v4/sequential/cnf_ALO_v4/25x25_72.cnf
c p 45161
c cnf 221934
s SATISFIABLE
c process-time: 7s 7.19 seconds
-----
c input_v4/sequential/cnf_ALO_v4/25x25_78.cnf
c p 36265
c cnf 180800
s SATISFIABLE
c process-time: 7s 7.29 seconds
-----
c input_v4/sequential/cnf_ALO_v4/25x42_110.cnf
c p 121586
c cnf 605308
s SATISFIABLE
c process-time: 1m 41s 101.02 seconds
-----
c input_v4/sequential/cnf_ALO_v4/35x48_190.cnf
c p 129600
c cnf 677348
c process-time: 15m 899.62 seconds
UNKNOWN
-----
c input_v4/sequential/cnf_ALO_v4/6x6_120.cnf
c p 228
c cnf 942
s SATISFIABLE
c process-time: 0.00 seconds
-----
c input_v4/sequential/cnf_ALO_v4/6x6_121.cnf
c p 336
c cnf 1286
s SATISFIABLE
c process-time: 0.00 seconds
-----
c input_v4/sequential/cnf_ALO_v4/6x6_122.cnf
c p 284
c cnf 1108
s SATISFIABLE
c process-time: 0.00 seconds
-----
c input_v4/sequential/cnf_ALO_v4/6x6_123.cnf
c p 284
c cnf 1175
s SATISFIABLE
c process-time: 0.00 seconds
-----
c input_v4/sequential/cnf_ALO_v4/6x6_124.cnf
c p 284
c cnf 1099
s SATISFIABLE
c process-time: 0.00 seconds
-----
c input_v4/sequential/cnf_ALO_v4/6x6_125.cnf
c p 284
c cnf 1125
s SATISFIABLE
c process-time: 0.00 seconds
-----
c input_v4/sequential/cnf_ALO_v4/6x6_130.cnf
c p 228
c cnf 942
s SATISFIABLE
c process-time: 0.00 seconds
-----
c input_v4/sequential/cnf_ALO_v4/6x6_131.cnf
c p 336
c cnf 1276
s SATISFIABLE
c process-time: 0.00 seconds
-----
c input_v4/sequential/cnf_ALO_v4/6x6_132.cnf
c p 228
c cnf 929
s SATISFIABLE
c process-time: 0.00 seconds
-----
c input_v4/sequential/cnf_ALO_v4/6x6_133.cnf
c p 336
c cnf 1245
s SATISFIABLE
c process-time: 0.00 seconds
-----
c input_v4/sequential/cnf_ALO_v4/6x6_134.cnf
c p 336
c cnf 1266
s SATISFIABLE
c process-time: 0.00 seconds
-----
c input_v4/sequential/cnf_ALO_v4/6x6_135.cnf
c p 228
c cnf 929
s SATISFIABLE
c process-time: 0.00 seconds
-----
c input_v4/sequential/cnf_ALO_v4/6x6_136.cnf
c p 228
c cnf 967
s SATISFIABLE
c process-time: 0.00 seconds
-----
c input_v4/sequential/cnf_ALO_v4/6x6_137.cnf
c p 284
c cnf 1166
s SATISFIABLE
c process-time: 0.00 seconds
-----
c input_v4/sequential/cnf_ALO_v4/6x6_138.cnf
c p 284
c cnf 1150
s SATISFIABLE
c process-time: 0.00 seconds
-----
c input_v4/sequential/cnf_ALO_v4/6x6_139.cnf
c p 284
c cnf 1108
s SATISFIABLE
c process-time: 0.00 seconds
-----
c input_v4/sequential/cnf_ALO_v4/6x6_140.cnf
c p 384
c cnf 1370
s SATISFIABLE
c process-time: 0.00 seconds
-----
c input_v4/sequential/cnf_ALO_v4/6x6_141.cnf
c p 228
c cnf 929
s SATISFIABLE
c process-time: 0.00 seconds
-----
c input_v4/sequential/cnf_ALO_v4/6x6_142.cnf
c p 284
c cnf 1116
s SATISFIABLE
c process-time: 0.00 seconds
-----
c input_v4/sequential/cnf_ALO_v4/6x6_143.cnf
c p 336
c cnf 1296
s SATISFIABLE
c process-time: 0.00 seconds
-----
c input_v4/sequential/cnf_ALO_v4/6x6_144.cnf
c p 336
c cnf 1308
s SATISFIABLE
c process-time: 0.00 seconds
-----
c input_v4/sequential/cnf_ALO_v4/6x6_145.cnf
c p 284
c cnf 1125
s SATISFIABLE
c process-time: 0.00 seconds
-----
c input_v4/sequential/cnf_ALO_v4/7x7_120.cnf
c p 479
c cnf 1884
s SATISFIABLE
c process-time: 0.00 seconds
-----
c input_v4/sequential/cnf_ALO_v4/7x7_121.cnf
c p 553
c cnf 2257
s SATISFIABLE
c process-time: 0.00 seconds
-----
c input_v4/sequential/cnf_ALO_v4/7x7_122.cnf
c p 553
c cnf 2294
s SATISFIABLE
c process-time: 0.00 seconds
-----
c input_v4/sequential/cnf_ALO_v4/7x7_123.cnf
c p 401
c cnf 1645
s SATISFIABLE
c process-time: 0.00 seconds
-----
c input_v4/sequential/cnf_ALO_v4/7x7_124.cnf
c p 479
c cnf 1957
s SATISFIABLE
c process-time: 0.00 seconds
-----
c input_v4/sequential/cnf_ALO_v4/7x7_130.cnf
c p 319
c cnf 1436
s SATISFIABLE
c process-time: 0.00 seconds
-----
c input_v4/sequential/cnf_ALO_v4/7x7_131.cnf
c p 479
c cnf 2009
s SATISFIABLE
c process-time: 0.00 seconds
-----
c input_v4/sequential/cnf_ALO_v4/7x7_132.cnf
c p 623
c cnf 2458
s SATISFIABLE
c process-time: 0.00 seconds
-----
c input_v4/sequential/cnf_ALO_v4/7x7_133.cnf
c p 479
c cnf 2040
s SATISFIABLE
c process-time: 0.00 seconds
-----
c input_v4/sequential/cnf_ALO_v4/7x7_134.cnf
c p 401
c cnf 1687
s SATISFIABLE
c process-time: 0.00 seconds
-----
c input_v4/sequential/cnf_ALO_v4/7x7_135.cnf
c p 553
c cnf 2331
s SATISFIABLE
c process-time: 0.00 seconds
-----
c input_v4/sequential/cnf_ALO_v4/7x7_136.cnf
c p 401
c cnf 1679
s SATISFIABLE
c process-time: 0.00 seconds
-----
c input_v4/sequential/cnf_ALO_v4/7x7_137.cnf
c p 401
c cnf 1704
s SATISFIABLE
c process-time: 0.00 seconds
-----
c input_v4/sequential/cnf_ALO_v4/7x7_138.cnf
c p 479
c cnf 1978
s SATISFIABLE
c process-time: 0.00 seconds
-----
c input_v4/sequential/cnf_ALO_v4/7x7_139.cnf
c p 479
c cnf 2009
s SATISFIABLE
c process-time: 0.00 seconds
-----
c input_v4/sequential/cnf_ALO_v4/7x7_140.cnf
c p 479
c cnf 1947
s SATISFIABLE
c process-time: 0.00 seconds
-----
c input_v4/sequential/cnf_ALO_v4/7x7_141.cnf
c p 479
c cnf 1957
s SATISFIABLE
c process-time: 0.00 seconds
-----
c input_v4/sequential/cnf_ALO_v4/7x7_142.cnf
c p 479
c cnf 1978
s SATISFIABLE
c process-time: 0.00 seconds
-----
c input_v4/sequential/cnf_ALO_v4/7x7_143.cnf
c p 553
c cnf 2332
s SATISFIABLE
c process-time: 0.00 seconds
-----
c input_v4/sequential/cnf_ALO_v4/7x7_144.cnf
c p 479
c cnf 1978
s SATISFIABLE
c process-time: 0.00 seconds
-----
c input_v4/sequential/cnf_ALO_v4/7x7_145.cnf
c p 479
c cnf 1946
s SATISFIABLE
c process-time: 0.00 seconds
-----
c input_v4/sequential/cnf_ALO_v4/8x8_120.cnf
c p 848
c cnf 3504
s SATISFIABLE
c process-time: 0.00 seconds
-----
c input_v4/sequential/cnf_ALO_v4/8x8_121.cnf
c p 848
c cnf 3505
s SATISFIABLE
c process-time: 0.00 seconds
-----
c input_v4/sequential/cnf_ALO_v4/8x8_122.cnf
c p 848
c cnf 3620
s SATISFIABLE
c process-time: 0.00 seconds
-----
c input_v4/sequential/cnf_ALO_v4/8x8_123.cnf
c p 848
c cnf 3461
s SATISFIABLE
c process-time: 0.00 seconds
-----
c input_v4/sequential/cnf_ALO_v4/8x8_124.cnf
c p 644
c cnf 2900
s SATISFIABLE
c process-time: 0.00 seconds
-----
c input_v4/sequential/cnf_ALO_v4/8x8_130.cnf
c p 644
c cnf 2785
s SATISFIABLE
c process-time: 0.00 seconds
-----
c input_v4/sequential/cnf_ALO_v4/8x8_131.cnf
c p 848
c cnf 3504
s SATISFIABLE
c process-time: 0.00 seconds
-----
c input_v4/sequential/cnf_ALO_v4/8x8_132.cnf
c p 748
c cnf 3118
s SATISFIABLE
c process-time: 0.00 seconds
-----
c input_v4/sequential/cnf_ALO_v4/8x8_133.cnf
c p 644
c cnf 2827
s SATISFIABLE
c process-time: 0.00 seconds
-----
c input_v4/sequential/cnf_ALO_v4/8x8_134.cnf
c p 848
c cnf 3432
s SATISFIABLE
c process-time: 0.00 seconds
-----
c input_v4/sequential/cnf_ALO_v4/8x8_135.cnf
c p 644
c cnf 2775
s SATISFIABLE
c process-time: 0.00 seconds
-----
c input_v4/sequential/cnf_ALO_v4/8x8_136.cnf
c p 748
c cnf 3143
s SATISFIABLE
c process-time: 0.00 seconds
-----
c input_v4/sequential/cnf_ALO_v4/8x8_137.cnf
c p 848
c cnf 3504
s SATISFIABLE
c process-time: 0.00 seconds
-----
c input_v4/sequential/cnf_ALO_v4/8x8_138.cnf
c p 536
c cnf 2404
s SATISFIABLE
c process-time: 0.00 seconds
-----
c input_v4/sequential/cnf_ALO_v4/8x8_139.cnf
c p 848
c cnf 3461
s SATISFIABLE
c process-time: 0.00 seconds
-----
c input_v4/sequential/cnf_ALO_v4/8x8_140.cnf
c p 748
c cnf 3218
s SATISFIABLE
c process-time: 0.00 seconds
-----
c input_v4/sequential/cnf_ALO_v4/8x8_141.cnf
c p 848
c cnf 3605
s SATISFIABLE
c process-time: 0.00 seconds
-----
c input_v4/sequential/cnf_ALO_v4/8x8_142.cnf
c p 748
c cnf 3180
s SATISFIABLE
c process-time: 0.00 seconds
-----
c input_v4/sequential/cnf_ALO_v4/8x8_143.cnf
c p 944
c cnf 3920
s SATISFIABLE
c process-time: 0.00 seconds
-----
c input_v4/sequential/cnf_ALO_v4/8x8_144.cnf
c p 748
c cnf 3230
s SATISFIABLE
c process-time: 0.00 seconds
-----
c input_v4/sequential/cnf_ALO_v4/8x8_145.cnf
c p 848
c cnf 3591
s SATISFIABLE
c process-time: 0.00 seconds
-----
c input_v4/sequential/cnf_ALO_v4/9x9_120.cnf
c p 969
c cnf 4314
s SATISFIABLE
c process-time: 0.00 seconds
-----
c input_v4/sequential/cnf_ALO_v4/9x9_121.cnf
c p 1233
c cnf 5309
s SATISFIABLE
c process-time: 0.00 seconds
-----
c input_v4/sequential/cnf_ALO_v4/9x9_122.cnf
c p 1233
c cnf 5260
s SATISFIABLE
c process-time: 0.00 seconds
-----
c input_v4/sequential/cnf_ALO_v4/9x9_123.cnf
c p 1103
c cnf 4749
s SATISFIABLE
c process-time: 0.00 seconds
-----
c input_v4/sequential/cnf_ALO_v4/9x9_124.cnf
c p 1359
c cnf 5821
s SATISFIABLE
c process-time: 0.00 seconds
-----
c input_v4/sequential/cnf_ALO_v4/9x9_130.cnf
c p 1233
c cnf 5293
s SATISFIABLE
c process-time: 0.00 seconds
-----
c input_v4/sequential/cnf_ALO_v4/9x9_131.cnf
c p 1359
c cnf 5710
s SATISFIABLE
c process-time: 0.00 seconds
-----
c input_v4/sequential/cnf_ALO_v4/9x9_132.cnf
c p 1359
c cnf 5765
s SATISFIABLE
c process-time: 0.00 seconds
-----
c input_v4/sequential/cnf_ALO_v4/9x9_133.cnf
c p 1233
c cnf 5359
s SATISFIABLE
c process-time: 0.00 seconds
-----
c input_v4/sequential/cnf_ALO_v4/9x9_134.cnf
c p 969
c cnf 4389
s SATISFIABLE
c process-time: 0.00 seconds
-----
c input_v4/sequential/cnf_ALO_v4/9x9_135.cnf
c p 1103
c cnf 4850
s SATISFIABLE
c process-time: 0.00 seconds
-----
c input_v4/sequential/cnf_ALO_v4/9x9_136.cnf
c p 1103
c cnf 4865
s SATISFIABLE
c process-time: 0.00 seconds
-----
c input_v4/sequential/cnf_ALO_v4/9x9_137.cnf
c p 969
c cnf 4289
s SATISFIABLE
c process-time: 0.00 seconds
-----
c input_v4/sequential/cnf_ALO_v4/9x9_138.cnf
c p 1103
c cnf 4879
s SATISFIABLE
c process-time: 0.00 seconds
-----
c input_v4/sequential/cnf_ALO_v4/9x9_139.cnf
c p 1233
c cnf 5194
s SATISFIABLE
c process-time: 0.00 seconds
-----
c input_v4/sequential/cnf_ALO_v4/9x9_140.cnf
c p 1233
c cnf 5441
s SATISFIABLE
c process-time: 0.00 seconds
-----
c input_v4/sequential/cnf_ALO_v4/9x9_141.cnf
c p 969
c cnf 4301
s SATISFIABLE
c process-time: 0.00 seconds
-----
c input_v4/sequential/cnf_ALO_v4/9x9_142.cnf
c p 1359
c cnf 5784
s SATISFIABLE
c process-time: 0.00 seconds
-----
c input_v4/sequential/cnf_ALO_v4/9x9_143.cnf
c p 1103
c cnf 4894
s SATISFIABLE
c process-time: 0.00 seconds
-----
c input_v4/sequential/cnf_ALO_v4/9x9_144.cnf
c p 1233
c cnf 5309
s SATISFIABLE
c process-time: 0.00 seconds
-----
c input_v4/sequential/cnf_ALO_v4/9x9_145.cnf
c p 1103
c cnf 4807
s SATISFIABLE
c process-time: 0.00 seconds
-----
UNKNOWN
-----

